language ESSENCE' 1.0

letting jobs = 102
letting horizon = 828
letting resourcesRenew = 2
letting resourcesNonrenew = 2
letting resourceLimits = [12, 12, 404, 388]
letting successors = [[2, 3, 4, 6, 7, 8, 9, 11], [22, 17, 16, 15, 14, 10, 5], [36, 32, 24, 23, 22, 21, 19, 16, 12], [32, 24, 17, 16, 13], [32, 26, 24, 19, 13, 12], [25, 24, 22, 15, 13], [37, 36, 29, 26, 25, 24, 23, 20, 18], [32, 29, 26, 25, 24, 21, 17], [32, 24, 15, 14], [41, 37, 36, 35, 33, 32, 30, 28, 27, 26, 25, 23, 20], [37, 28, 26, 25, 24, 21, 20, 19], [30, 29, 28, 27, 25, 20], [36, 29, 28, 21, 20], [47, 36, 35, 34, 33, 28, 27, 26, 25], [41, 37, 35, 30, 27, 26, 20], [41, 37, 33, 30, 26, 25, 20], [47, 37, 36, 35, 34, 28, 27], [42, 35, 34, 33, 30, 28, 27], [47, 45, 43, 42, 41, 35, 34, 30], [51, 47, 45, 43, 38, 34, 31], [51, 47, 44, 43, 38, 33, 31], [47, 41, 31, 27], [51, 50, 47, 46, 45, 43, 42, 38, 34], [51, 47, 30, 27], [51, 44, 43, 40, 38, 31], [51, 45, 44, 43, 38, 31], [50, 46, 45, 44, 43, 40, 39, 38], [51, 50, 46, 43, 40, 39, 38], [51, 42, 41, 38, 35], [50, 46, 40, 39, 38], [62, 55, 53, 50, 46, 42, 39], [50, 45, 40, 38], [62, 53, 49, 45, 40, 39], [53, 44, 40, 39], [62, 55, 50, 49, 39], [58, 53, 51, 49, 40], [62, 54, 51, 42], [64, 62, 60, 58, 57, 53, 52, 49], [60, 58, 56, 54, 52, 48], [60, 56, 55, 54, 52, 48], [64, 62, 61, 58, 56, 55, 54, 50], [60, 58, 56, 52, 48], [74, 64, 61, 59, 57, 56, 55, 54], [74, 61, 57, 49], [66, 58, 56, 55, 52], [74, 64, 49], [61, 59, 58, 56, 54], [74, 71, 69, 66, 64, 63, 61, 57], [59, 56, 54], [74, 69, 68, 67, 66, 65, 63, 59], [74, 69, 65, 61, 59, 55], [74, 69, 68, 67, 65, 61, 59], [84, 77, 74, 73, 69, 67, 65, 59], [80, 79, 72, 68, 67, 66, 63], [84, 82, 80, 79, 72, 71, 70, 68, 67], [82, 79, 77, 76, 69, 68, 65], [84, 79, 77, 73, 67, 65], [82, 79, 78, 77, 76, 73, 72, 71, 69], [82, 81, 80, 79, 76, 75, 72, 71, 70], [84, 82, 77, 73, 70, 67], [84, 82, 81, 80, 77, 76, 75, 72], [84, 80, 78, 76, 75, 74, 72], [82, 77, 76, 75, 73, 70], [82, 76, 75, 68], [89, 81, 80, 75, 72], [99, 87, 84, 83, 81, 78, 75], [81, 78, 76, 75], [81, 78, 73], [101, 89, 87, 83, 81, 75], [101, 100, 99, 97, 87, 86, 78], [100, 99, 98, 97, 91, 90, 89, 87, 85], [101, 99, 97, 96, 90, 87, 86, 83], [101, 99, 98, 96, 90, 87, 86, 83], [99, 98, 92, 91, 90, 89, 88, 81], [98, 97, 91, 90, 86, 85], [101, 100, 99, 98, 91, 90, 87], [97, 91, 90, 85], [98, 96, 94, 91, 89], [100, 99, 94, 92, 89], [97, 90, 85], [100, 97, 96, 95, 94, 93], [90, 89, 88], [95, 91, 88], [94, 92, 90], [96, 95, 94], [94, 92], [88], [94, 93], [95, 93], [93], [93], [95], [102], [102], [102], [102], [102], [102], [102], [102], [102], []]
letting durations = [[0], [7, 8, 10], [6, 7, 9], [2, 3, 8], [2, 6, 8], [1, 8, 9], [3, 6, 9], [1, 5, 6], [2, 3, 4], [2, 3, 7], [5, 6, 10], [4, 5, 5], [6, 6, 7], [2, 3, 10], [1, 3, 7], [1, 3, 7], [5, 6, 9], [2, 7, 10], [5, 9, 9], [2, 8, 9], [2, 9, 9], [2, 5, 9], [1, 5, 6], [9, 10, 10], [8, 9, 10], [5, 6, 8], [7, 8, 9], [2, 3, 10], [2, 7, 8], [2, 4, 7], [3, 8, 10], [3, 7, 7], [1, 5, 10], [2, 5, 6], [1, 5, 10], [2, 5, 9], [1, 7, 9], [4, 5, 6], [6, 7, 9], [1, 2, 4], [6, 8, 9], [8, 9, 10], [4, 10, 10], [2, 4, 5], [2, 4, 9], [3, 6, 10], [1, 7, 10], [1, 6, 7], [1, 2, 10], [4, 6, 6], [2, 2, 6], [1, 8, 9], [3, 5, 6], [1, 1, 6], [1, 5, 8], [2, 7, 8], [1, 9, 10], [1, 2, 9], [1, 4, 8], [4, 9, 10], [3, 4, 8], [4, 5, 6], [4, 7, 9], [9, 10, 10], [1, 6, 10], [3, 5, 5], [2, 3, 10], [1, 2, 9], [2, 3, 5], [6, 8, 8], [2, 3, 10], [8, 9, 10], [5, 8, 8], [2, 6, 7], [2, 5, 6], [7, 8, 8], [1, 9, 10], [2, 5, 8], [3, 4, 6], [2, 3, 6], [2, 3, 5], [2, 3, 10], [4, 6, 7], [1, 5, 9], [8, 10, 10], [1, 5, 9], [4, 7, 10], [1, 3, 4], [4, 10, 10], [3, 5, 8], [3, 7, 8], [3, 7, 10], [2, 3, 7], [1, 2, 9], [5, 7, 10], [2, 9, 9], [7, 9, 10], [2, 5, 9], [6, 9, 10], [6, 7, 10], [3, 6, 10], [0]]
letting resourceUsage = [[[0, 0, 0, 0]], [[4, 4, 4, 0], [4, 4, 3, 0], [4, 3, 2, 0]], [[1, 2, 0, 9], [1, 2, 0, 7], [1, 2, 0, 6]], [[2, 5, 0, 7], [2, 5, 5, 0], [2, 5, 4, 0]], [[5, 3, 3, 0], [3, 2, 2, 0], [3, 2, 1, 0]], [[3, 3, 0, 9], [3, 3, 4, 0], [2, 1, 2, 0]], [[3, 4, 9, 0], [3, 4, 0, 3], [3, 4, 8, 0]], [[5, 4, 0, 7], [2, 3, 0, 7], [2, 2, 2, 0]], [[4, 4, 9, 0], [4, 4, 8, 0], [4, 4, 6, 0]], [[2, 3, 0, 8], [2, 3, 3, 0], [2, 2, 0, 4]], [[4, 2, 6, 0], [3, 1, 0, 5], [3, 1, 5, 0]], [[3, 5, 0, 9], [3, 4, 0, 8], [3, 4, 4, 0]], [[3, 2, 2, 0], [3, 1, 0, 5], [3, 1, 0, 4]], [[2, 2, 0, 10], [2, 2, 7, 0], [1, 2, 0, 8]], [[2, 1, 5, 0], [2, 1, 0, 6], [2, 1, 4, 0]], [[4, 3, 0, 5], [2, 3, 6, 0], [2, 2, 6, 0]], [[3, 4, 8, 0], [2, 2, 7, 0], [1, 2, 7, 0]], [[2, 5, 0, 3], [2, 4, 0, 3], [1, 4, 0, 3]], [[3, 2, 8, 0], [2, 2, 0, 1], [1, 2, 8, 0]], [[4, 4, 0, 6], [4, 3, 6, 0], [4, 3, 4, 0]], [[2, 3, 0, 5], [1, 2, 8, 0], [1, 2, 0, 5]], [[3, 3, 0, 9], [2, 2, 0, 6], [1, 1, 4, 0]], [[3, 5, 0, 8], [1, 4, 0, 7], [1, 3, 6, 0]], [[4, 2, 6, 0], [3, 1, 5, 0], [3, 1, 0, 1]], [[3, 2, 0, 8], [3, 2, 0, 7], [3, 2, 0, 6]], [[4, 3, 7, 0], [3, 3, 0, 6], [1, 3, 0, 5]], [[2, 4, 4, 0], [2, 3, 0, 9], [2, 3, 2, 0]], [[3, 4, 0, 8], [2, 4, 2, 0], [2, 3, 0, 6]], [[2, 2, 0, 6], [2, 1, 0, 5], [2, 1, 0, 4]], [[3, 4, 0, 6], [2, 3, 0, 5], [2, 2, 0, 4]], [[5, 3, 7, 0], [3, 2, 6, 0], [1, 2, 5, 0]], [[1, 1, 0, 8], [1, 1, 0, 6], [1, 1, 3, 0]], [[4, 3, 8, 0], [3, 2, 5, 0], [2, 2, 5, 0]], [[1, 1, 10, 0], [1, 1, 9, 0], [1, 1, 8, 0]], [[2, 4, 9, 0], [2, 2, 0, 5], [2, 2, 0, 3]], [[4, 2, 3, 0], [4, 2, 2, 0], [4, 2, 0, 3]], [[5, 4, 2, 0], [4, 2, 1, 0], [2, 2, 0, 6]], [[4, 4, 6, 0], [3, 2, 0, 4], [3, 2, 1, 0]], [[4, 3, 0, 6], [4, 1, 9, 0], [2, 1, 9, 0]], [[5, 3, 0, 5], [2, 1, 7, 0], [2, 1, 0, 3]], [[5, 5, 6, 0], [4, 3, 0, 6], [2, 3, 0, 4]], [[3, 5, 9, 0], [3, 4, 0, 5], [3, 3, 5, 0]], [[3, 3, 6, 0], [2, 2, 6, 0], [2, 1, 0, 7]], [[4, 4, 0, 4], [3, 4, 0, 4], [1, 4, 6, 0]], [[1, 5, 0, 8], [1, 5, 0, 3], [1, 5, 8, 0]], [[5, 5, 0, 7], [4, 4, 0, 5], [3, 3, 8, 0]], [[3, 4, 0, 8], [3, 4, 0, 6], [3, 4, 0, 3]], [[1, 4, 5, 0], [1, 4, 4, 0], [1, 4, 0, 1]], [[1, 2, 0, 5], [1, 2, 5, 0], [1, 2, 0, 2]], [[4, 2, 0, 4], [2, 1, 0, 3], [2, 1, 4, 0]], [[3, 4, 0, 8], [3, 4, 6, 0], [2, 3, 5, 0]], [[4, 2, 10, 0], [3, 2, 7, 0], [3, 2, 4, 0]], [[5, 5, 0, 9], [2, 3, 5, 0], [1, 3, 0, 9]], [[4, 4, 9, 0], [2, 4, 0, 4], [2, 4, 0, 2]], [[3, 4, 0, 7], [3, 2, 6, 0], [3, 2, 0, 7]], [[4, 1, 6, 0], [4, 1, 0, 5], [3, 1, 6, 0]], [[5, 2, 8, 0], [4, 2, 0, 9], [4, 1, 8, 0]], [[3, 4, 2, 0], [3, 4, 1, 0], [2, 4, 2, 0]], [[3, 1, 0, 9], [1, 1, 3, 0], [1, 1, 2, 0]], [[1, 3, 0, 5], [1, 2, 0, 5], [1, 2, 6, 0]], [[3, 2, 0, 7], [2, 1, 0, 4], [1, 1, 0, 3]], [[5, 4, 0, 9], [4, 3, 3, 0], [4, 3, 1, 0]], [[4, 1, 0, 10], [4, 1, 0, 6], [2, 1, 2, 0]], [[2, 4, 0, 2], [2, 4, 0, 1], [2, 4, 6, 0]], [[3, 3, 0, 9], [1, 2, 0, 8], [1, 2, 1, 0]], [[2, 1, 0, 6], [1, 1, 5, 0], [1, 1, 0, 6]], [[1, 5, 5, 0], [1, 3, 5, 0], [1, 3, 4, 0]], [[2, 3, 0, 10], [1, 3, 0, 10], [1, 2, 0, 10]], [[4, 3, 8, 0], [4, 2, 3, 0], [3, 2, 0, 4]], [[3, 3, 10, 0], [2, 1, 0, 4], [2, 1, 4, 0]], [[5, 5, 6, 0], [2, 4, 6, 0], [1, 3, 5, 0]], [[2, 4, 4, 0], [2, 3, 0, 3], [2, 1, 0, 3]], [[3, 3, 9, 0], [2, 3, 0, 6], [2, 3, 8, 0]], [[3, 3, 3, 0], [2, 3, 0, 4], [2, 3, 0, 3]], [[4, 2, 0, 5], [2, 2, 7, 0], [1, 2, 0, 2]], [[4, 2, 0, 5], [3, 2, 0, 5], [2, 1, 7, 0]], [[4, 3, 0, 7], [2, 3, 0, 6], [1, 2, 0, 4]], [[1, 3, 5, 0], [1, 3, 0, 6], [1, 3, 4, 0]], [[3, 2, 7, 0], [3, 2, 6, 0], [3, 2, 0, 1]], [[1, 4, 9, 0], [1, 4, 0, 2], [1, 4, 8, 0]], [[2, 4, 10, 0], [2, 3, 8, 0], [1, 2, 6, 0]], [[4, 5, 8, 0], [3, 4, 5, 0], [3, 4, 0, 2]], [[3, 4, 0, 5], [2, 4, 0, 2], [2, 3, 0, 1]], [[2, 4, 0, 4], [2, 2, 4, 0], [2, 2, 0, 2]], [[4, 2, 0, 6], [3, 2, 3, 0], [3, 2, 0, 2]], [[5, 3, 0, 6], [4, 3, 0, 6], [3, 3, 8, 0]], [[4, 2, 9, 0], [3, 2, 0, 4], [1, 2, 0, 4]], [[2, 4, 8, 0], [2, 4, 7, 0], [2, 3, 7, 0]], [[4, 4, 0, 5], [3, 4, 3, 0], [2, 4, 0, 3]], [[2, 1, 5, 0], [2, 1, 0, 3], [2, 1, 3, 0]], [[2, 5, 0, 3], [2, 4, 0, 3], [2, 4, 0, 2]], [[3, 3, 0, 3], [2, 2, 0, 2], [2, 1, 0, 1]], [[4, 4, 0, 8], [2, 4, 3, 0], [2, 4, 2, 0]], [[4, 4, 10, 0], [2, 2, 0, 8], [2, 2, 8, 0]], [[4, 5, 7, 0], [3, 2, 0, 6], [2, 2, 0, 4]], [[3, 4, 6, 0], [3, 3, 0, 1], [3, 3, 5, 0]], [[1, 5, 0, 8], [1, 5, 4, 0], [1, 5, 3, 0]], [[2, 3, 0, 10], [2, 2, 0, 9], [2, 1, 0, 9]], [[3, 3, 10, 0], [2, 2, 5, 0], [2, 2, 3, 0]], [[3, 3, 0, 10], [2, 3, 7, 0], [2, 3, 4, 0]], [[3, 3, 5, 0], [2, 3, 3, 0], [2, 2, 1, 0]], [[0, 0, 0, 0]]]
